r = [
0,11,3,9,7,1,5,6,5,11,2,0
];
p = [
0,8,4,11,22,3,14,16,10,21,1,0
];
e = [
0,10,3,18,10,12,19,11,3,12,7,0
];
d = [
0,133,86,127,89,73,88,78,83,133,106,144
];
d_bar = [
0,137,88,133,100,75,95,86,88,144,107,144
];
w = [
0,2.5,1.5,3,0.909090909,6,2.714285714,1.375,0.6,1.090909091,7,0
];
